(set-info :source |printed by MathSAT|)
(declare-fun |.x{14}| () (Array Int Int))
(declare-fun |.x{18}| () (Array Int Int))
(declare-fun |.x{15}| () (Array Int Int))
(declare-fun |.x{19}| () (Array Int Int))
(declare-fun |.x{16}| () Int)
(declare-fun |.x{20}| () Int)
(declare-fun |.x{17}| () Int)
(declare-fun |.x{21}| () Int)
(declare-fun |.loc{2}| () Bool)
(declare-fun |.loc{3}| () Bool)
(declare-fun |.x{9}| () Int)
(declare-fun |.x{34}| () Int)
(define-fun .def_12 () Int (! |.x{16}| :next |.x{20}|))
(define-fun .def_65 () Bool (= .def_12 0))
(define-fun .def_16 () Bool (! |.loc{2}| :next |.loc{3}|))
(define-fun .def_22 () Bool (not .def_16))
(define-fun .def_66 () Bool (! (and .def_22 .def_65) :init true))
(define-fun .def_14 () Int (! |.x{17}| :next |.x{21}|))
(define-fun .def_63 () Bool (= .def_14 |.x{21}|))
(define-fun .def_8 () (Array Int Int) (! |.x{14}| :next |.x{18}|))
(define-fun .def_58 () Bool (= .def_8 |.x{18}|))
(define-fun .def_54 () Bool (= |.x{20}| 0))
(define-fun .def_10 () (Array Int Int) (! |.x{15}| :next |.x{19}|))
(define-fun .def_51 () Bool (= .def_10 |.x{19}|))
(define-fun .def_52 () Bool (and .def_22 .def_51))
(define-fun .def_55 () Bool (and .def_52 .def_54))
(define-fun .def_56 () Bool (and .def_54 .def_55))
(define-fun .def_26 () Bool (<= .def_14 .def_12))
(define-fun .def_57 () Bool (and .def_26 .def_56))
(define-fun .def_59 () Bool (and .def_57 .def_58))
(define-fun .def_45 () Int (select .def_8 .def_12))
(define-fun .def_47 () Int (+ .def_45 (- 1)))
(define-fun .def_48 () (Array Int Int) (store .def_8 .def_12 .def_47))
(define-fun .def_49 () Bool (= |.x{18}| .def_48))
(define-fun .def_37 () Int (select .def_10 .def_12))
(define-fun .def_39 () Int (+ .def_37 2))
(define-fun .def_40 () (Array Int Int) (store .def_10 .def_12 .def_39))
(define-fun .def_41 () Bool (= |.x{19}| .def_40))
(define-fun .def_42 () Bool (and .def_16 .def_41))
(define-fun .def_19 () Int (* (- 1) |.x{20}|))
(define-fun .def_20 () Int (+ .def_12 .def_19))
(define-fun .def_21 () Bool (= .def_20 (- 1)))
(define-fun .def_43 () Bool (and .def_21 .def_42))
(define-fun .def_27 () Bool (not .def_26))
(define-fun .def_44 () Bool (and .def_27 .def_43))
(define-fun .def_50 () Bool (and .def_44 .def_49))
(define-fun .def_60 () Bool (or .def_50 .def_59))
(define-fun .def_61 () Bool (and |.loc{3}| .def_60))
(define-fun .def_33 () (Array Int Int) (store .def_10 .def_12 |.x{9}|))
(define-fun .def_34 () Bool (= |.x{19}| .def_33))
(define-fun .def_30 () (Array Int Int) (store .def_8 .def_12 |.x{9}|))
(define-fun .def_31 () Bool (= |.x{18}| .def_30))
(define-fun .def_24 () Bool (not |.loc{3}|))
(define-fun .def_23 () Bool (and .def_21 .def_22))
(define-fun .def_25 () Bool (and .def_23 .def_24))
(define-fun .def_28 () Bool (and .def_25 .def_27))
(define-fun .def_32 () Bool (and .def_28 .def_31))
(define-fun .def_35 () Bool (and .def_32 .def_34))
(define-fun .def_62 () Bool (or .def_35 .def_61))
(define-fun .def_64 () Bool (! (and .def_62 .def_63) :trans true))
(define-fun .def_67 () Int (! |.x{34}| :next |.xpv{1}|))
(define-fun .def_74 () Bool (<= .def_67 0))
(define-fun .def_75 () Bool (not .def_74))
(define-fun .def_76 () Bool (and .def_26 .def_75))
(define-fun .def_72 () Bool (<= .def_14 .def_67))
(define-fun .def_73 () Bool (not .def_72))
(define-fun .def_77 () Bool (and .def_73 .def_76))
(define-fun .def_68 () Int (select .def_8 .def_67))
(define-fun .def_69 () Int (select .def_10 .def_67))
(define-fun .def_70 () Bool (<= .def_69 .def_68))
(define-fun .def_71 () Bool (not .def_70))
(define-fun .def_78 () Bool (and .def_71 .def_77))
(define-fun .def_79 () Bool (and .def_16 .def_78))
(define-fun .def_81 () Bool (! (not .def_79) :invar-property 0))
(assert true)
